Route #1: 1 7 10 2 16 22 12 9 21 13 1 
Route #2: 1 27 24 30 5 33 14 6 15 1 
Route #3: 1 1 8 18 32 28 31 11 1 
Route #4: 1 23 19 17 25 29 1 
Route #5: 1 26 4 20 3 1 

Cost 1028.23
Time 0.1729


 * Another infos *

 Iterations: 34 Time: 0.1729 sec - 0.0029 min - 0.0000 horas
0.0000 h 0.0029 min
Problem dimension: 34
